128
0 127
0 121
0 119
0 118
0 116
0 113
0 109
0 108
0 107
0 104
0 102
0 101
0 97
0 89
0 87
0 79
0 78
0 75
0 73
0 71
0 69
0 66
0 63
0 56
0 54
0 46
0 43
0 36
0 32
0 31
0 30
0 26
0 11
1 127
1 126
1 125
1 122
1 121
1 117
1 115
1 114
1 112
1 110
1 106
1 98
1 95
1 93
1 92
1 91
1 90
1 88
1 87
1 85
1 83
1 82
1 81
1 75
1 74
1 70
1 69
1 68
1 67
1 65
1 63
1 61
1 60
1 59
1 57
1 52
1 51
1 45
1 44
1 40
1 37
1 35
1 29
1 27
1 24
1 23
1 22
1 21
1 19
1 12
1 9
1 7
1 6
1 5
2 123
2 103
2 86
2 84
2 80
2 62
2 58
2 49
2 48
2 47
2 41
2 34
2 31
2 25
2 20
2 17
2 15
2 10
2 8
2 4
2 3
3 123
3 103
3 76
3 58
3 53
3 48
3 47
3 39
3 28
3 25
3 20
3 17
3 14
3 8
3 4
3 2
4 103
4 86
4 80
4 76
4 62
4 47
4 36
4 34
4 32
4 31
4 28
4 20
4 15
4 11
4 8
4 3
4 2
5 126
5 121
5 112
5 110
5 106
5 105
5 95
5 94
5 92
5 88
5 83
5 75
5 74
5 70
5 69
5 66
5 63
5 59
5 55
5 40
5 22
5 12
5 9
5 1
6 127
6 125
6 124
6 122
6 114
6 113
6 112
6 109
6 106
6 100
6 99
6 98
6 93
6 91
6 90
6 87
6 82
6 77
6 75
6 72
6 68
6 67
6 65
6 61
6 57
6 51
6 45
6 44
6 42
6 38
6 27
6 26
6 24
6 19
6 18
6 13
6 7
6 1
7 127
7 125
7 124
7 122
7 121
7 116
7 114
7 113
7 112
7 109
7 107
7 106
7 104
7 101
7 100
7 99
7 98
7 96
7 93
7 91
7 90
7 89
7 87
7 82
7 78
7 77
7 75
7 74
7 73
7 72
7 68
7 67
7 65
7 64
7 63
7 61
7 57
7 51
7 44
7 42
7 38
7 27
7 26
7 19
7 18
7 13
7 9
7 6
7 1
8 123
8 103
8 86
8 84
8 80
8 76
8 58
8 53
8 48
8 47
8 41
8 39
8 28
8 25
8 20
8 17
8 14
8 4
8 3
8 2
9 126
9 125
9 122
9 117
9 115
9 114
9 112
9 110
9 106
9 98
9 95
9 93
9 92
9 91
9 90
9 87
9 85
9 83
9 82
9 81
9 75
9 74
9 70
9 68
9 67
9 65
9 61
9 60
9 57
9 52
9 51
9 45
9 44
9 40
9 37
9 35
9 29
9 27
9 24
9 23
9 21
9 19
9 12
9 7
9 5
9 1
10 103
10 84
10 80
10 62
10 58
10 49
10 48
10 41
10 16
10 2
11 119
11 116
11 111
11 109
11 108
11 107
11 102
11 101
11 97
11 89
11 86
11 79
11 78
11 73
11 54
11 47
11 46
11 43
11 36
11 34
11 32
11 31
11 30
11 15
11 4
11 0
12 126
12 122
12 121
12 112
12 110
12 106
12 105
12 95
12 94
12 92
12 88
12 83
12 75
12 74
12 70
12 69
12 66
12 63
12 59
12 55
12 44
12 40
12 29
12 23
12 22
12 9
12 5
12 1
13 127
13 125
13 124
13 122
13 114
13 113
13 100
13 99
13 98
13 96
13 93
13 91
13 90
13 87
13 82
13 77
13 75
13 72
13 68
13 67
13 65
13 64
13 61
13 51
13 44
13 42
13 38
13 27
13 26
13 18
13 7
13 6
14 123
14 111
14 103
14 76
14 53
14 48
14 47
14 39
14 28
14 25
14 20
14 17
14 8
14 3
15 124
15 120
15 116
15 113
15 109
15 104
15 101
15 96
15 89
15 86
15 79
15 78
15 73
15 64
15 47
15 46
15 36
15 34
15 32
15 31
15 11
15 4
15 2
16 84
16 80
16 62
16 58
16 49
16 48
16 41
16 10
17 123
17 103
17 76
17 58
17 53
17 48
17 39
17 28
17 25
17 20
17 14
17 8
17 3
17 2
18 127
18 125
18 124
18 122
18 116
18 114
18 113
18 109
18 107
18 104
18 100
18 99
18 98
18 96
18 91
18 90
18 89
18 87
18 78
18 77
18 75
18 73
18 72
18 67
18 65
18 64
18 61
18 51
18 50
18 42
18 38
18 27
18 26
18 13
18 7
18 6
19 127
19 126
19 125
19 122
19 117
19 115
19 114
19 112
19 110
19 106
19 98
19 95
19 93
19 92
19 91
19 90
19 87
19 85
19 83
19 82
19 81
19 75
19 74
19 68
19 67
19 65
19 61
19 60
19 57
19 52
19 51
19 45
19 44
19 42
19 40
19 37
19 35
19 29
19 27
19 24
19 23
19 21
19 9
19 7
19 6
19 1
20 123
20 103
20 80
20 76
20 58
20 53
20 48
20 47
20 41
20 39
20 28
20 25
20 17
20 14
20 8
20 4
20 3
20 2
21 125
21 122
21 117
21 115
21 114
21 112
21 93
21 92
21 85
21 82
21 81
21 68
21 65
21 60
21 57
21 52
21 51
21 45
21 44
21 40
21 37
21 35
21 29
21 24
21 23
21 19
21 9
21 1
22 126
22 121
22 110
22 106
22 105
22 95
22 94
22 88
22 83
22 75
22 74
22 70
22 69
22 66
22 63
22 59
22 56
22 55
22 54
22 12
22 5
22 1
23 126
23 125
23 122
23 117
23 115
23 114
23 112
23 110
23 106
23 98
23 95
23 93
23 92
23 91
23 90
23 87
23 85
23 83
23 82
23 81
23 74
23 70
23 68
23 67
23 65
23 61
23 60
23 57
23 52
23 51
23 45
23 44
23 40
23 37
23 35
23 29
23 27
23 24
23 21
23 19
23 12
23 9
23 1
24 126
24 125
24 122
24 117
24 115
24 114
24 112
24 110
24 106
24 98
24 93
24 92
24 91
24 90
24 85
24 83
24 82
24 81
24 74
24 68
24 67
24 65
24 61
24 60
24 57
24 52
24 51
24 45
24 44
24 40
24 37
24 35
24 29
24 27
24 23
24 21
24 19
24 9
24 6
24 1
25 123
25 103
25 76
25 58
25 53
25 48
25 39
25 28
25 20
25 17
25 14
25 8
25 3
25 2
26 127
26 126
26 125
26 124
26 122
26 121
26 116
26 114
26 113
26 112
26 109
26 108
26 107
26 106
26 104
26 102
26 101
26 100
26 99
26 98
26 97
26 96
26 91
26 90
26 89
26 87
26 82
26 79
26 78
26 77
26 75
26 74
26 73
26 72
26 69
26 68
26 67
26 66
26 65
26 63
26 61
26 56
26 54
26 51
26 44
26 42
26 38
26 30
26 27
26 18
26 13
26 7
26 6
26 0
27 127
27 126
27 125
27 124
27 122
27 117
27 115
27 114
27 113
27 112
27 110
27 109
27 107
27 106
27 100
27 99
27 98
27 95
27 93
27 92
27 91
27 90
27 87
27 85
27 82
27 81
27 78
27 77
27 75
27 74
27 73
27 72
27 68
27 67
27 65
27 63
27 61
27 60
27 57
27 52
27 51
27 45
27 44
27 42
27 40
27 38
27 37
27 35
27 29
27 26
27 24
27 23
27 19
27 18
27 13
27 9
27 7
27 6
27 1
28 123
28 111
28 103
28 76
28 53
28 48
28 47
28 39
28 25
28 20
28 17
28 14
28 8
28 4
28 3
29 126
29 125
29 122
29 117
29 115
29 114
29 112
29 110
29 106
29 98
29 95
29 93
29 92
29 91
29 90
29 87
29 85
29 83
29 82
29 81
29 75
29 74
29 68
29 67
29 65
29 61
29 60
29 57
29 52
29 51
29 45
29 44
29 40
29 37
29 35
29 27
29 24
29 23
29 21
29 19
29 12
29 9
29 1
30 121
30 119
30 118
30 116
30 109
30 108
30 107
30 102
30 101
30 97
30 89
30 79
30 78
30 73
30 71
30 66
30 63
30 56
30 54
30 46
30 43
30 36
30 32
30 31
30 26
30 11
30 0
31 119
31 116
31 111
31 108
31 101
31 97
31 89
31 86
31 79
31 78
31 73
31 47
31 46
31 36
31 34
31 32
31 30
31 15
31 11
31 4
31 2
31 0
32 124
32 120
32 119
32 116
32 113
32 109
32 108
32 107
32 104
32 101
32 96
32 89
32 86
32 79
32 78
32 77
32 73
32 64
32 47
32 46
32 38
32 36
32 34
32 31
32 30
32 15
32 11
32 4
32 0
33 124
33 120
33 96
33 64
33 50
33 34
34 120
34 116
34 104
34 96
34 86
34 73
34 64
34 62
34 47
34 33
34 32
34 31
34 15
34 11
34 4
34 2
35 126
35 125
35 122
35 117
35 115
35 114
35 112
35 110
35 93
35 92
35 85
35 82
35 81
35 74
35 68
35 65
35 60
35 57
35 52
35 51
35 45
35 44
35 40
35 37
35 29
35 27
35 24
35 23
35 21
35 19
35 9
35 1
36 119
36 111
36 108
36 102
36 101
36 97
36 86
36 79
36 71
36 47
36 46
36 43
36 32
36 31
36 30
36 15
36 11
36 4
36 0
37 126
37 125
37 122
37 117
37 115
37 114
37 112
37 110
37 106
37 98
37 95
37 93
37 92
37 91
37 90
37 85
37 83
37 82
37 81
37 74
37 68
37 67
37 65
37 61
37 60
37 57
37 52
37 51
37 45
37 44
37 40
37 35
37 29
37 27
37 24
37 23
37 21
37 19
37 9
37 1
38 127
38 124
38 120
38 116
38 113
38 109
38 108
38 107
38 104
38 101
38 100
38 99
38 98
38 96
38 91
38 90
38 89
38 87
38 79
38 78
38 77
38 75
38 73
38 72
38 67
38 65
38 64
38 61
38 51
38 50
38 42
38 32
38 27
38 26
38 18
38 13
38 7
38 6
39 123
39 103
39 76
39 58
39 53
39 48
39 28
39 25
39 20
39 17
39 14
39 8
39 3
40 126
40 125
40 122
40 117
40 115
40 114
40 112
40 110
40 106
40 98
40 95
40 93
40 92
40 91
40 85
40 83
40 82
40 81
40 74
40 70
40 68
40 67
40 65
40 60
40 57
40 52
40 51
40 45
40 44
40 37
40 35
40 29
40 27
40 24
40 23
40 21
40 19
40 12
40 9
40 5
40 1
41 103
41 84
41 80
41 62
41 58
41 49
41 48
41 20
41 16
41 10
41 8
41 2
42 127
42 125
42 124
42 122
42 121
42 116
42 114
42 113
42 112
42 109
42 108
42 107
42 106
42 104
42 101
42 100
42 99
42 98
42 96
42 93
42 91
42 90
42 89
42 87
42 82
42 79
42 78
42 77
42 75
42 73
42 72
42 68
42 67
42 65
42 64
42 63
42 61
42 51
42 44
42 38
42 27
42 26
42 19
42 18
42 13
42 7
42 6
43 121
43 119
43 118
43 109
43 108
43 107
43 102
43 101
43 97
43 89
43 79
43 78
43 71
43 69
43 66
43 63
43 56
43 54
43 46
43 36
43 30
43 11
43 0
44 127
44 126
44 125
44 122
44 117
44 115
44 114
44 112
44 110
44 106
44 99
44 98
44 95
44 93
44 92
44 91
44 90
44 87
44 85
44 83
44 82
44 81
44 75
44 74
44 72
44 70
44 68
44 67
44 65
44 61
44 60
44 57
44 52
44 51
44 45
44 42
44 40
44 37
44 35
44 29
44 27
44 26
44 24
44 23
44 21
44 19
44 13
44 12
44 9
44 7
44 6
44 1
45 126
45 125
45 122
45 117
45 115
45 114
45 112
45 110
45 106
45 98
45 93
45 92
45 91
45 90
45 85
45 82
45 81
45 74
45 68
45 67
45 65
45 61
45 60
45 57
45 52
45 51
45 44
45 40
45 37
45 35
45 29
45 27
45 24
45 23
45 21
45 19
45 9
45 6
45 1
46 119
46 118
46 111
46 108
46 102
46 101
46 97
46 79
46 71
46 56
46 54
46 43
46 36
46 32
46 31
46 30
46 15
46 11
46 0
47 111
47 86
47 76
47 53
47 36
47 34
47 32
47 31
47 28
47 20
47 15
47 14
47 11
47 8
47 4
47 3
47 2
48 123
48 103
48 84
48 80
48 76
48 62
48 58
48 53
48 49
48 41
48 39
48 28
48 25
48 20
48 17
48 16
48 14
48 10
48 8
48 3
48 2
49 103
49 84
49 80
49 62
49 58
49 48
49 41
49 16
49 10
49 2
50 124
50 120
50 116
50 113
50 104
50 100
50 99
50 96
50 77
50 73
50 72
50 64
50 38
50 33
50 18
51 127
51 126
51 125
51 122
51 117
51 115
51 114
51 113
51 112
51 110
51 109
51 107
51 106
51 100
51 99
51 98
51 95
51 93
51 92
51 91
51 90
51 87
51 85
51 83
51 82
51 81
51 78
51 77
51 75
51 74
51 72
51 68
51 67
51 65
51 63
51 61
51 60
51 57
51 52
51 45
51 44
51 42
51 40
51 38
51 37
51 35
51 29
51 27
51 26
51 24
51 23
51 21
51 19
51 18
51 13
51 9
51 7
51 6
51 1
52 126
52 125
52 122
52 117
52 115
52 114
52 112
52 110
52 106
52 98
52 95
52 93
52 92
52 91
52 90
52 87
52 85
52 83
52 82
52 81
52 74
52 68
52 67
52 65
52 61
52 60
52 57
52 51
52 45
52 44
52 40
52 37
52 35
52 29
52 27
52 24
52 23
52 21
52 19
52 9
52 1
53 123
53 111
53 103
53 76
53 48
53 47
53 39
53 28
53 25
53 20
53 17
53 14
53 8
53 3
54 127
54 121
54 119
54 118
54 109
54 108
54 107
54 102
54 101
54 97
54 89
54 87
54 79
54 78
54 75
54 71
54 69
54 66
54 63
54 56
54 46
54 43
54 30
54 26
54 22
54 11
54 0
55 126
55 121
55 110
55 105
55 95
55 94
55 88
55 83
55 70
55 69
55 66
55 63
55 59
55 22
55 12
55 5
56 127
56 121
56 119
56 118
56 109
56 108
56 107
56 102
56 101
56 97
56 89
56 88
56 87
56 79
56 78
56 75
56 71
56 69
56 66
56 63
56 54
56 46
56 43
56 30
56 26
56 22
56 0
57 126
57 125
57 122
57 117
57 115
57 114
57 112
57 110
57 106
57 98
57 93
57 92
57 91
57 90
57 87
57 85
57 83
57 82
57 81
57 74
57 68
57 67
57 65
57 61
57 60
57 52
57 51
57 45
57 44
57 40
57 37
57 35
57 29
57 27
57 24
57 23
57 21
57 19
57 9
57 7
57 6
57 1
58 123
58 103
58 84
58 80
58 62
58 49
58 48
58 41
58 39
58 25
58 20
58 17
58 16
58 10
58 8
58 3
58 2
59 126
59 121
59 110
59 106
59 105
59 95
59 94
59 92
59 88
59 83
59 74
59 70
59 69
59 66
59 63
59 55
59 22
59 12
59 5
59 1
60 126
60 125
60 122
60 117
60 115
60 114
60 112
60 110
60 106
60 93
60 92
60 91
60 85
60 83
60 82
60 81
60 74
60 68
60 67
60 65
60 57
60 52
60 51
60 45
60 44
60 40
60 37
60 35
60 29
60 27
60 24
60 23
60 21
60 19
60 9
60 1
61 127
61 126
61 125
61 124
61 122
61 121
61 116
61 115
61 114
61 113
61 112
61 109
61 107
61 106
61 104
61 100
61 99
61 98
61 96
61 93
61 92
61 91
61 90
61 89
61 87
61 82
61 81
61 78
61 77
61 75
61 74
61 73
61 72
61 68
61 67
61 65
61 63
61 57
61 52
61 51
61 45
61 44
61 42
61 38
61 37
61 29
61 27
61 26
61 24
61 23
61 19
61 18
61 13
61 9
61 7
61 6
61 1
62 103
62 84
62 80
62 58
62 49
62 48
62 41
62 34
62 16
62 10
62 4
62 2
63 127
63 126
63 122
63 121
63 118
63 113
63 109
63 108
63 107
63 106
63 102
63 99
63 97
63 95
63 91
63 90
63 89
63 88
63 87
63 83
63 79
63 78
63 75
63 74
63 70
63 69
63 67
63 66
63 61
63 59
63 56
63 55
63 54
63 51
63 43
63 42
63 30
63 27
63 26
63 22
63 12
63 7
63 5
63 1
63 0
64 124
64 120
64 116
64 113
64 104
64 101
64 100
64 99
64 96
64 89
64 78
64 77
64 73
64 72
64 50
64 42
64 38
64 34
64 33
64 32
64 18
64 15
64 13
64 7
65 127
65 126
65 125
65 122
65 117
65 115
65 114
65 113
65 112
65 110
65 109
65 106
65 100
65 99
65 98
65 95
65 93
65 92
65 91
65 90
65 87
65 85
65 83
65 82
65 81
65 75
65 74
65 72
65 68
65 67
65 61
65 60
65 57
65 52
65 51
65 45
65 44
65 42
65 40
65 38
65 37
65 35
65 29
65 27
65 26
65 24
65 23
65 21
65 19
65 18
65 13
65 9
65 7
65 6
65 1
66 127
66 121
66 119
66 118
66 109
66 108
66 107
66 102
66 97
66 95
66 89
66 88
66 87
66 79
66 78
66 75
66 71
66 70
66 69
66 67
66 63
66 59
66 56
66 55
66 54
66 43
66 30
66 26
66 22
66 12
66 5
66 0
67 127
67 126
67 125
67 124
67 122
67 121
67 115
67 114
67 113
67 112
67 110
67 109
67 108
67 107
67 106
67 101
67 100
67 99
67 98
67 95
67 93
67 92
67 91
67 90
67 89
67 87
67 83
67 82
67 81
67 78
67 77
67 75
67 74
67 73
67 72
67 70
67 69
67 68
67 66
67 65
67 63
67 61
67 60
67 57
67 52
67 51
67 45
67 44
67 42
67 40
67 38
67 37
67 29
67 27
67 26
67 24
67 23
67 19
67 18
67 13
67 9
67 7
67 6
67 1
68 127
68 126
68 125
68 122
68 117
68 115
68 114
68 112
68 110
68 106
68 99
68 98
68 95
68 93
68 92
68 91
68 90
68 87
68 85
68 83
68 82
68 81
68 75
68 74
68 72
68 67
68 65
68 61
68 60
68 57
68 52
68 51
68 45
68 44
68 42
68 40
68 37
68 35
68 29
68 27
68 26
68 24
68 23
68 21
68 19
68 13
68 9
68 7
68 6
68 1
69 127
69 126
69 121
69 110
69 109
69 108
69 107
69 106
69 105
69 102
69 97
69 95
69 94
69 91
69 88
69 87
69 83
69 75
69 74
69 70
69 67
69 66
69 63
69 59
69 56
69 55
69 54
69 43
69 26
69 22
69 12
69 5
69 1
69 0
70 126
70 125
70 122
70 121
70 112
70 110
70 106
70 105
70 95
70 94
70 92
70 91
70 88
70 87
70 83
70 75
70 74
70 69
70 67
70 66
70 63
70 59
70 55
70 44
70 40
70 23
70 22
70 12
70 9
70 5
70 1
71 119
71 118
71 108
71 107
71 102
71 101
71 97
71 79
71 66
71 56
71 54
71 46
71 43
71 36
71 30
71 0
72 127
72 125
72 124
72 122
72 116
72 114
72 113
72 109
72 107
72 104
72 100
72 99
72 98
72 96
72 91
72 90
72 89
72 87
72 82
72 78
72 77
72 75
72 73
72 68
72 67
72 65
72 64
72 61
72 51
72 50
72 44
72 42
72 38
72 27
72 26
72 18
72 13
72 7
72 6
73 127
73 124
73 120
73 116
73 113
73 109
73 108
73 107
73 104
73 101
73 100
73 99
73 97
73 96
73 90
73 89
73 87
73 79
73 78
73 77
73 75
73 72
73 67
73 64
73 61
73 50
73 42
73 38
73 34
73 32
73 31
73 30
73 27
73 26
73 18
73 15
73 11
73 7
73 0
74 127
74 126
74 125
74 122
74 121
74 117
74 115
74 114
74 112
74 110
74 106
74 98
74 95
74 93
74 92
74 91
74 90
74 88
74 87
74 85
74 83
74 82
74 81
74 75
74 70
74 69
74 68
74 67
74 65
74 63
74 61
74 60
74 59
74 57
74 52
74 51
74 45
74 44
74 40
74 37
74 35
74 29
74 27
74 26
74 24
74 23
74 22
74 19
74 12
74 9
74 7
74 5
74 1
75 127
75 126
75 125
75 124
75 122
75 121
75 116
75 114
75 113
75 112
75 110
75 109
75 108
75 107
75 106
75 104
75 101
75 100
75 99
75 98
75 95
75 93
75 92
75 91
75 90
75 89
75 88
75 87
75 82
75 79
75 78
75 77
75 74
75 73
75 72
75 70
75 69
75 68
75 67
75 66
75 65
75 63
75 61
75 56
75 54
75 51
75 44
75 42
75 38
75 29
75 27
75 26
75 22
75 19
75 18
75 13
75 12
75 9
75 7
75 6
75 5
75 1
75 0
76 123
76 111
76 103
76 53
76 48
76 47
76 39
76 28
76 25
76 20
76 17
76 14
76 8
76 4
76 3
77 127
77 124
77 120
77 116
77 113
77 109
77 108
77 107
77 104
77 101
77 100
77 99
77 98
77 96
77 91
77 90
77 89
77 87
77 79
77 78
77 75
77 73
77 72
77 67
77 64
77 61
77 51
77 50
77 42
77 38
77 32
77 27
77 26
77 18
77 13
77 7
77 6
78 127
78 124
78 116
78 113
78 109
78 108
78 107
78 104
78 102
78 101
78 100
78 99
78 98
78 97
78 96
78 91
78 90
78 89
78 87
78 79
78 77
78 75
78 73
78 72
78 67
78 66
78 64
78 63
78 61
78 56
78 54
78 51
78 43
78 42
78 38
78 32
78 31
78 30
78 27
78 26
78 18
78 15
78 11
78 7
78 0
79 127
79 124
79 119
79 118
79 116
79 113
79 109
79 108
79 107
79 104
79 102
79 101
79 99
79 97
79 96
79 89
79 87
79 78
79 77
79 75
79 73
79 71
79 66
79 63
79 56
79 54
79 46
79 43
79 42
79 38
79 36
79 32
79 31
79 30
79 26
79 15
79 11
79 0
80 103
80 84
80 62
80 58
80 49
80 48
80 41
80 20
80 16
80 10
80 8
80 4
80 2
81 126
81 125
81 122
81 117
81 115
81 114
81 112
81 110
81 98
81 93
81 92
81 91
81 85
81 83
81 82
81 74
81 68
81 67
81 65
81 61
81 60
81 57
81 52
81 51
81 45
81 44
81 40
81 37
81 35
81 29
81 27
81 24
81 23
81 21
81 19
81 9
81 1
82 127
82 126
82 125
82 122
82 117
82 115
82 114
82 112
82 110
82 106
82 99
82 98
82 93
82 92
82 91
82 90
82 87
82 85
82 81
82 75
82 74
82 72
82 68
82 67
82 65
82 61
82 60
82 57
82 52
82 51
82 45
82 44
82 42
82 40
82 37
82 35
82 29
82 27
82 26
82 24
82 23
82 21
82 19
82 13
82 9
82 7
82 6
82 1
83 126
83 125
83 122
83 121
83 115
83 114
83 112
83 110
83 106
83 105
83 95
83 94
83 93
83 92
83 91
83 88
83 85
83 81
83 74
83 70
83 69
83 68
83 67
83 65
83 63
83 60
83 59
83 57
83 55
83 52
83 51
83 44
83 40
83 37
83 29
83 24
83 23
83 22
83 19
83 12
83 9
83 5
83 1
84 103
84 80
84 62
84 58
84 49
84 48
84 41
84 16
84 10
84 8
84 2
85 126
85 125
85 122
85 117
85 115
85 114
85 112
85 110
85 93
85 92
85 91
85 83
85 82
85 81
85 74
85 68
85 65
85 60
85 57
85 52
85 51
85 45
85 44
85 40
85 37
85 35
85 29
85 27
85 24
85 23
85 21
85 19
85 9
85 1
86 47
86 36
86 34
86 32
86 31
86 15
86 11
86 8
86 4
86 2
87 127
87 126
87 125
87 124
87 122
87 121
87 116
87 115
87 114
87 113
87 112
87 109
87 108
87 107
87 106
87 104
87 101
87 100
87 99
87 98
87 95
87 93
87 92
87 91
87 90
87 89
87 82
87 79
87 78
87 77
87 75
87 74
87 73
87 72
87 70
87 69
87 68
87 67
87 66
87 65
87 63
87 61
87 57
87 56
87 54
87 52
87 51
87 44
87 42
87 38
87 29
87 27
87 26
87 23
87 19
87 18
87 13
87 9
87 7
87 6
87 1
87 0
88 126
88 121
88 110
88 106
88 105
88 95
88 94
88 92
88 83
88 75
88 74
88 70
88 69
88 66
88 63
88 59
88 56
88 55
88 22
88 12
88 5
88 1
89 127
89 124
89 119
89 116
89 113
89 109
89 108
89 107
89 104
89 102
89 101
89 100
89 99
89 97
89 96
89 91
89 90
89 87
89 79
89 78
89 77
89 75
89 73
89 72
89 67
89 66
89 64
89 63
89 61
89 56
89 54
89 43
89 42
89 38
89 32
89 31
89 30
89 26
89 18
89 15
89 11
89 7
89 0
90 127
90 126
90 125
90 124
90 122
90 121
90 116
90 115
90 114
90 113
90 112
90 109
90 107
90 106
90 104
90 100
90 99
90 98
90 96
90 93
90 92
90 91
90 89
90 87
90 82
90 78
90 77
90 75
90 74
90 73
90 72
90 68
90 67
90 65
90 63
90 61
90 57
90 52
90 51
90 45
90 44
90 42
90 38
90 37
90 29
90 27
90 26
90 24
90 23
90 19
90 18
90 13
90 9
90 7
90 6
90 1
91 127
91 126
91 125
91 122
91 121
91 117
91 115
91 114
91 113
91 112
91 110
91 109
91 107
91 106
91 100
91 99
91 98
91 95
91 93
91 92
91 90
91 89
91 87
91 85
91 83
91 82
91 81
91 78
91 77
91 75
91 74
91 72
91 70
91 69
91 68
91 67
91 65
91 63
91 61
91 60
91 57
91 52
91 51
91 45
91 44
91 42
91 40
91 38
91 37
91 29
91 27
91 26
91 24
91 23
91 19
91 18
91 13
91 9
91 7
91 6
91 1
92 126
92 125
92 122
92 117
92 115
92 114
92 112
92 110
92 106
92 98
92 95
92 93
92 91
92 90
92 88
92 87
92 85
92 83
92 82
92 81
92 75
92 74
92 70
92 68
92 67
92 65
92 61
92 60
92 59
92 57
92 52
92 51
92 45
92 44
92 40
92 37
92 35
92 29
92 27
92 24
92 23
92 21
92 19
92 12
92 9
92 5
92 1
93 127
93 126
93 125
93 122
93 117
93 115
93 114
93 112
93 110
93 106
93 98
93 92
93 91
93 90
93 87
93 85
93 83
93 82
93 81
93 75
93 74
93 68
93 67
93 65
93 61
93 60
93 57
93 52
93 51
93 45
93 44
93 42
93 40
93 37
93 35
93 29
93 27
93 24
93 23
93 21
93 19
93 13
93 9
93 7
93 6
93 1
94 126
94 121
94 105
94 95
94 88
94 83
94 70
94 69
94 59
94 55
94 22
94 12
94 5
95 126
95 125
95 122
95 121
95 115
95 114
95 112
95 110
95 106
95 105
95 94
95 92
95 91
95 88
95 87
95 83
95 75
95 74
95 70
95 69
95 68
95 67
95 66
95 65
95 63
95 59
95 55
95 52
95 51
95 44
95 40
95 37
95 29
95 27
95 23
95 22
95 19
95 12
95 9
95 5
95 1
96 127
96 124
96 120
96 116
96 113
96 109
96 108
96 107
96 104
96 101
96 100
96 99
96 90
96 89
96 79
96 78
96 77
96 73
96 72
96 64
96 61
96 50
96 42
96 38
96 34
96 33
96 32
96 26
96 18
96 15
96 13
96 7
97 127
97 121
97 119
97 118
97 109
97 108
97 107
97 102
97 101
97 89
97 79
97 78
97 73
97 71
97 69
97 66
97 63
97 56
97 54
97 46
97 43
97 36
97 31
97 30
97 26
97 11
97 0
98 127
98 126
98 125
98 122
98 117
98 115
98 114
98 113
98 112
98 109
98 106
98 100
98 99
98 93
98 92
98 91
98 90
98 87
98 82
98 81
98 78
98 77
98 75
98 74
98 72
98 68
98 67
98 65
98 61
98 57
98 52
98 51
98 45
98 44
98 42
98 40
98 38
98 37
98 29
98 27
98 26
98 24
98 23
98 19
98 18
98 13
98 9
98 7
98 6
98 1
99 127
99 125
99 124
99 122
99 116
99 114
99 113
99 109
99 107
99 106
99 104
99 101
99 100
99 98
99 96
99 91
99 90
99 89
99 87
99 82
99 79
99 78
99 77
99 75
99 73
99 72
99 68
99 67
99 65
99 64
99 63
99 61
99 51
99 50
99 44
99 42
99 38
99 27
99 26
99 18
99 13
99 7
99 6
100 127
100 124
100 116
100 114
100 113
100 109
100 104
100 99
100 98
100 96
100 91
100 90
100 89
100 87
100 78
100 77
100 75
100 73
100 72
100 67
100 65
100 64
100 61
100 51
100 50
100 42
100 38
100 27
100 26
100 18
100 13
100 7
100 6
101 127
101 124
101 119
101 116
101 113
101 109
101 108
101 107
101 104
101 102
101 99
101 97
101 96
101 89
101 87
101 79
101 78
101 77
101 75
101 73
101 71
101 67
101 64
101 56
101 54
101 46
101 43
101 42
101 38
101 36
101 32
101 31
101 30
101 26
101 15
101 11
101 7
101 0
102 121
102 119
102 118
102 109
102 108
102 107
102 101
102 97
102 89
102 79
102 78
102 71
102 69
102 66
102 63
102 56
102 54
102 46
102 43
102 36
102 30
102 26
102 11
102 0
103 123
103 84
103 80
103 76
103 62
103 58
103 53
103 49
103 48
103 41
103 39
103 28
103 25
103 20
103 17
103 14
103 10
103 8
103 4
103 3
103 2
104 127
104 124
104 120
104 116
104 113
104 109
104 108
104 107
104 101
104 100
104 99
104 96
104 90
104 89
104 87
104 79
104 78
104 77
104 75
104 73
104 72
104 64
104 61
104 50
104 42
104 38
104 34
104 32
104 26
104 18
104 15
104 7
104 0
105 95
105 94
105 88
105 83
105 70
105 69
105 59
105 55
105 22
105 12
105 5
106 127
106 126
106 125
106 122
106 121
106 115
106 114
106 112
106 110
106 109
106 99
106 98
106 95
106 93
106 92
106 91
106 90
106 88
106 87
106 83
106 82
106 75
106 74
106 70
106 69
106 68
106 67
106 65
106 63
106 61
106 60
106 59
106 57
106 52
106 51
106 45
106 44
106 42
106 40
106 37
106 29
106 27
106 26
106 24
106 23
106 22
106 19
106 12
106 9
106 7
106 6
106 5
106 1
107 127
107 124
107 121
107 119
107 116
107 113
107 109
107 108
107 104
107 102
107 101
107 99
107 97
107 96
107 91
107 90
107 89
107 87
107 79
107 78
107 77
107 75
107 73
107 72
107 71
107 69
107 67
107 66
107 63
107 61
107 56
107 54
107 51
107 43
107 42
107 38
107 32
107 30
107 27
107 26
107 18
107 11
107 7
107 0
108 127
108 121
108 119
108 118
108 116
108 113
108 109
108 107
108 104
108 102
108 101
108 97
108 96
108 89
108 87
108 79
108 78
108 77
108 75
108 73
108 71
108 69
108 67
108 66
108 63
108 56
108 54
108 46
108 43
108 42
108 38
108 36
108 32
108 31
108 30
108 26
108 11
108 0
109 127
109 125
109 124
109 122
109 121
109 116
109 113
109 108
109 107
109 106
109 104
109 102
109 101
109 100
109 99
109 98
109 97
109 96
109 91
109 90
109 89
109 87
109 79
109 78
109 77
109 75
109 73
109 72
109 69
109 67
109 66
109 65
109 63
109 61
109 56
109 54
109 51
109 43
109 42
109 38
109 32
109 30
109 27
109 26
109 18
109 15
109 11
109 7
109 6
109 0
110 126
110 125
110 122
110 121
110 117
110 115
110 114
110 112
110 106
110 95
110 93
110 92
110 91
110 88
110 85
110 83
110 82
110 81
110 75
110 74
110 70
110 69
110 68
110 67
110 65
110 60
110 59
110 57
110 55
110 52
110 51
110 45
110 44
110 40
110 37
110 35
110 29
110 27
110 24
110 23
110 22
110 19
110 12
110 9
110 5
110 1
111 119
111 76
111 53
111 47
111 46
111 36
111 31
111 28
111 14
111 11
112 127
112 126
112 125
112 122
112 117
112 115
112 114
112 110
112 106
112 98
112 95
112 93
112 92
112 91
112 90
112 87
112 85
112 83
112 82
112 81
112 75
112 74
112 70
112 68
112 67
112 65
112 61
112 60
112 57
112 52
112 51
112 45
112 44
112 42
112 40
112 37
112 35
112 29
112 27
112 26
112 24
112 23
112 21
112 19
112 12
112 9
112 7
112 6
112 5
112 1
113 127
113 125
113 124
113 122
113 116
113 114
113 109
113 108
113 107
113 104
113 101
113 100
113 99
113 98
113 96
113 91
113 90
113 89
113 87
113 79
113 78
113 77
113 75
113 73
113 72
113 67
113 65
113 64
113 63
113 61
113 51
113 50
113 42
113 38
113 32
113 27
113 26
113 18
113 15
113 13
113 7
113 6
113 0
114 127
114 126
114 125
114 122
114 117
114 115
114 113
114 112
114 110
114 106
114 100
114 99
114 98
114 95
114 93
114 92
114 91
114 90
114 87
114 85
114 83
114 82
114 81
114 75
114 74
114 72
114 68
114 67
114 65
114 61
114 60
114 57
114 52
114 51
114 45
114 44
114 42
114 40
114 37
114 35
114 29
114 27
114 26
114 24
114 23
114 21
114 19
114 18
114 13
114 9
114 7
114 6
114 1
115 126
115 125
115 122
115 117
115 114
115 112
115 110
115 106
115 98
115 95
115 93
115 92
115 91
115 90
115 87
115 85
115 83
115 82
115 81
115 74
115 68
115 67
115 65
115 61
115 60
115 57
115 52
115 51
115 45
115 44
115 40
115 37
115 35
115 29
115 27
115 24
115 23
115 21
115 19
115 9
115 1
116 127
116 124
116 120
116 113
116 109
116 108
116 107
116 104
116 101
116 100
116 99
116 96
116 90
116 89
116 87
116 79
116 78
116 77
116 75
116 73
116 72
116 64
116 61
116 50
116 42
116 38
116 34
116 32
116 31
116 30
116 26
116 18
116 15
116 11
116 7
116 0
117 125
117 122
117 115
117 114
117 112
117 110
117 98
117 93
117 92
117 91
117 85
117 82
117 81
117 74
117 68
117 65
117 60
117 57
117 52
117 51
117 45
117 44
117 40
117 37
117 35
117 29
117 27
117 24
117 23
117 21
117 19
117 9
117 1
118 121
118 119
118 108
118 102
118 97
118 79
118 71
118 66
118 63
118 56
118 54
118 46
118 43
118 30
118 0
119 118
119 111
119 108
119 107
119 102
119 101
119 97
119 89
119 79
119 71
119 66
119 56
119 54
119 46
119 43
119 36
119 32
119 31
119 30
119 11
119 0
120 124
120 116
120 104
120 96
120 77
120 73
120 64
120 50
120 38
120 34
120 33
120 32
120 15
121 127
121 126
121 118
121 110
121 109
121 108
121 107
121 106
121 102
121 97
121 95
121 94
121 91
121 90
121 88
121 87
121 83
121 75
121 74
121 70
121 69
121 67
121 66
121 63
121 61
121 59
121 56
121 55
121 54
121 43
121 42
121 30
121 26
121 22
121 12
121 7
121 5
121 1
121 0
122 127
122 126
122 125
122 117
122 115
122 114
122 113
122 112
122 110
122 109
122 106
122 99
122 98
122 95
122 93
122 92
122 91
122 90
122 87
122 85
122 83
122 82
122 81
122 75
122 74
122 72
122 70
122 68
122 67
122 65
122 63
122 61
122 60
122 57
122 52
122 51
122 45
122 44
122 42
122 40
122 37
122 35
122 29
122 27
122 26
122 24
122 23
122 21
122 19
122 18
122 13
122 12
122 9
122 7
122 6
122 1
123 103
123 76
123 58
123 53
123 48
123 39
123 28
123 25
123 20
123 17
123 14
123 8
123 3
123 2
124 127
124 120
124 116
124 113
124 109
124 107
124 104
124 101
124 100
124 99
124 96
124 90
124 89
124 87
124 79
124 78
124 77
124 75
124 73
124 72
124 67
124 64
124 61
124 50
124 42
124 38
124 33
124 32
124 27
124 26
124 18
124 15
124 13
124 7
124 6
125 127
125 126
125 122
125 117
125 115
125 114
125 113
125 112
125 110
125 109
125 106
125 99
125 98
125 95
125 93
125 92
125 91
125 90
125 87
125 85
125 83
125 82
125 81
125 75
125 74
125 72
125 70
125 68
125 67
125 65
125 61
125 60
125 57
125 52
125 51
125 45
125 44
125 42
125 40
125 37
125 35
125 29
125 27
125 26
125 24
125 23
125 21
125 19
125 18
125 13
125 9
125 7
125 6
125 1
126 125
126 122
126 121
126 115
126 114
126 112
126 110
126 106
126 98
126 95
126 94
126 93
126 92
126 91
126 90
126 88
126 87
126 85
126 83
126 82
126 81
126 75
126 74
126 70
126 69
126 68
126 67
126 65
126 63
126 61
126 60
126 59
126 57
126 55
126 52
126 51
126 45
126 44
126 40
126 37
126 35
126 29
126 27
126 26
126 24
126 23
126 22
126 19
126 12
126 9
126 5
126 1
127 125
127 124
127 122
127 121
127 116
127 114
127 113
127 112
127 109
127 108
127 107
127 106
127 104
127 101
127 100
127 99
127 98
127 97
127 96
127 93
127 91
127 90
127 89
127 87
127 82
127 79
127 78
127 77
127 75
127 74
127 73
127 72
127 69
127 68
127 67
127 66
127 65
127 63
127 61
127 56
127 54
127 51
127 44
127 42
127 38
127 27
127 26
127 19
127 18
127 13
127 7
127 6
127 1
127 0